<number of tasks>
50

<cycle time>
1000

<order strength>
0.597


<task times>
1 200
2 100
3 81
4 214
5 26
6 183
7 184
8 367
9 85
10 118
11 151
12 230
13 199
14 211
15 130
16 238
17 435
18 233
19 307
20 527
21 61
22 607
23 406
24 100
25 114
26 87
27 523
28 262
29 183
30 154
31 125
32 272
33 343
34 271
35 65
36 102
37 203
38 68
39 187
40 193
41 46
42 365
43 223
44 301
45 550
46 504
47 276
48 92
49 497
50 239

<precedence relations>
1,11
2,11
3,11
4,29
5,29
6,38
7,8
7,9
7,10
8,11
9,11
10,12
10,13
10,14
10,23
10,25
11,15
11,16
11,17
11,18
11,19
12,38
13,24
13,30
14,19
14,21
14,24
15,22
16,20
16,21
16,26
16,27
16,28
17,20
17,21
17,22
17,23
18,20
18,21
18,22
18,23
19,20
19,28
20,29
21,38
22,24
22,25
22,26
22,27
22,28
23,24
23,26
23,27
24,29
25,29
26,29
27,31
28,30
28,31
28,32
28,33
29,34
29,35
29,36
29,37
30,38
31,38
32,44
33,39
33,45
36,44
37,45
37,48
38,40
38,41
38,42
38,43
39,50
40,45
40,46
41,46
43,47
43,48
44,45
45,47
45,50
46,48
46,49

<end>
